40
150
120	1
119	1
118	2
112	1
111	1
110	1
109	1
108	1
105	1
99	1
98	1
97	2
94	1
92	1
91	1
90	2
87	1
85	1
84	1
83	3
81	1
77	2
75	1
74	1
72	1
68	1
66	1
65	1
64	2
60	1
57	1
55	1
51	1
50	1
45	1
44	1
43	1
37	3
31	1
30	2
